30 94 69 46 29 27 26 45 79 86 60 40 38 40 73 88 54 26 95 38 75 78 71 62 73 78 54 31 56 23 49 78 23 10 43 48 72 84 51 51 97 52 65 74 64 57 34 46 93 20 
64 76 74 80 61 36 77 38 86 94 44 96 69 78 58 96 75 17 18 36 70 67 93 52 39 30 44 18 75 53 60 31 84 15 36 13 25 73 60 70 64 65 91 68 71 60 52 59 16 33 
40 79 46 79 79 15 96 39 89 45 58 28 90 81 22 72 22 75 13 83 49 61 93 59 82 31 79 10 11 89 33 66 76 55 50 51 86 33 38 69 52 88 92 10 97 14 57 17 35 39 
49 73 24 24 36 43 63 30 51 65 85 32 33 48 36 41 88 46 28 94 46 14 97 97 34 33 15 74 69 17 26 76 41 58 32 67 23 42 99 68 99 49 87 63 47 77 91 99 97 35 
1380.00
